100 5
25 1000
20
30
10
40
20
20
20
10
20
30
40
20
10
10
20
20
20
20
40
10
10
40
30
10
20
30
20
10
10
10
20
10
10
30
20
40
10
30
10
30
20
10
20
10
10
10
10
10
10
30
19
3
5
16
16
19
23
20
19
17
9
3
6
17
16
16
9
21
27
23
14
8
5
8
16
31
7
27
30
13
10
9
14
18
2
28
13
19
25
6
13
14
3
23
6
26
35
9
15
3
40 50 0 960 0 0
25 85 673 793 10 3
22 75 152 272 10 3
22 85 471 591 10 3
20 80 644 764 10 2
20 85 73 193 10 2
18 75 388 508 10 1
15 75 300 420 10 3
15 80 367 487 10 3
10 35 371 491 10 2
10 40 519 639 10 1
8 40 195 315 10 3
8 45 223 343 10 3
5 35 653 773 10 1
5 45 35 155 10 2
2 40 174 294 10 3
0 40 255 375 10 1
0 45 703 823 10 1
44 5 335 455 10 1
42 10 254 374 10 1
42 15 537 657 10 2
40 5 215 335 10 1
40 15 375 495 10 2
38 5 201 321 10 2
38 15 681 801 10 3
35 5 784 904 10 3
95 30 529 649 10 3
95 35 146 266 10 3
92 30 149 269 10 1
90 35 194 314 10 3
88 30 246 366 10 2
88 35 165 285 10 3
87 30 621 741 10 3
85 25 80 200 10 1
85 35 487 607 10 1
67 85 657 777 10 2
65 85 43 163 10 1
65 82 557 677 10 2
62 80 278 398 10 1
60 80 64 184 10 3
60 85 329 449 10 1
58 75 376 496 10 2
55 80 33 153 10 1
55 85 574 694 10 1
55 82 217 337 10 1
20 82 37 157 10 1
18 80 489 609 10 3
2 45 105 225 10 3
42 5 732 852 10 3
42 12 440 560 10 1
72 35 507 627 10 2
55 20 326 446 10 2
25 30 175 295 10 3
20 50 375 495 10 2
55 60 601 721 10 2
30 60 599 719 10 3
50 35 557 677 10 1
30 25 397 517 10 2
15 10 782 902 10 1
10 20 42 162 10 3
15 60 694 814 10 3
45 65 258 378 10 3
65 35 167 287 10 1
65 20 39 159 10 2
45 30 191 311 10 2
35 40 11 131 10 3
41 37 566 686 10 3
64 42 268 388 10 1
40 60 612 732 10 3
31 52 157 277 10 3
35 69 810 930 10 1
65 55 241 361 10 2
63 65 60 180 10 1
2 60 286 406 10 2
20 20 645 765 10 3
5 5 232 352 10 3
60 12 268 388 10 1
23 3 764 884 10 3
8 56 365 485 10 2
6 68 352 472 10 3
47 47 822 942 10 3
49 58 355 475 10 3
27 43 152 272 10 1
37 31 105 225 10 2
57 29 395 515 10 2
63 23 344 464 10 1
21 24 349 469 10 2
12 24 359 479 10 1
24 58 260 380 10 3
67 5 713 833 10 3
37 47 359 479 10 1
49 42 719 839 10 1
53 43 14 134 10 1
61 52 808 928 10 3
57 48 392 512 10 1
56 37 100 220 10 2
55 54 562 682 10 3
4 18 547 667 10 3
26 52 172 292 10 2
26 35 308 428 10 3
31 67 810 930 10 2
52 5 0 960 5 4
29 66 0 960 5 4
37 44 0 960 5 4
16 84 0 960 5 4
6 12 0 960 5 4
0 0 0 1 0
0 0 0 1 0
0 0 0 1 0
0 0 0 1 0
0 0 0 1 0
0 0 0 0 0
0 0 0 1 0
0 0 0 1 0
0 0 0 0 1
0 0 0 0 0
0 0 0 0 1
0 0 1 0 0
0 0 0 0 0
0 1 0 0 0
0 0 0 0 1
0 0 0 0 0
0 0 0 0 0
0 0 0 0 0
0 0 0 0 0
1 0 0 0 0
0 0 0 0 0
1 0 0 0 0
1 0 0 0 0
1 0 0 0 0
1 0 0 0 0
1 0 0 0 0
1 0 0 0 0
0 0 0 0 0
1 0 0 0 0
1 0 0 0 0
1 0 0 0 0
1 0 0 0 0
0 0 0 0 0
0 0 0 0 0
0 1 0 0 0
0 0 0 0 0
0 1 0 0 0
0 0 0 0 0
0 1 0 0 0
0 0 0 0 0
0 1 0 0 0
0 0 0 0 0
0 0 0 0 0
0 0 0 0 0
0 0 0 0 0
0 0 0 1 0
0 0 0 0 1
1 0 0 0 0
0 0 0 0 0
1 0 0 0 0
1 0 0 0 0
0 0 1 0 0
0 0 1 0 0
0 0 1 0 0
0 1 0 0 0
0 0 0 0 0
0 0 1 0 0
0 0 0 0 0
0 0 0 0 1
0 1 0 0 0
0 1 0 0 0
0 0 0 0 0
1 0 0 0 0
0 0 1 0 0
0 0 1 0 0
0 0 1 0 0
0 0 0 0 0
0 1 0 0 0
0 0 1 0 0
0 0 0 0 0
0 0 1 0 0
0 0 0 0 0
0 1 0 0 0
0 0 0 0 1
0 0 0 0 1
0 0 0 0 0
0 0 0 0 1
0 1 0 0 0
0 0 0 1 0
0 0 1 0 0
0 0 1 0 0
0 0 0 0 0
0 0 1 0 0
1 0 0 0 0
0 0 0 0 0
0 0 0 0 1
0 0 0 0 0
0 1 0 0 0
1 0 0 0 0
0 0 0 0 0
0 0 0 0 0
0 0 0 0 0
0 0 1 0 0
0 0 0 0 0
0 0 1 0 0
0 0 1 0 0
0 0 0 0 1
0 0 1 0 0
0 0 1 0 0
0 1 0 0 0
